(set-info :source |printed by MathSAT|)
(declare-fun |!{$(in_main#0)<i>}| () Int)
(declare-fun |!{$(in_main#0)<i>}.next| () Int)
(declare-fun |!{$(in_main#0)<num>}| () Int)
(declare-fun |!{$(in_main#0)<num>}.next| () Int)
(declare-fun |!{$(in_main#0)<array.1>}| () (Array Int Int))
(declare-fun |!{$(in_main#0)<array.1>}.next| () (Array Int Int))
(declare-fun |!{$(in_main#0)<$(in___VERIFIER_nondet_int#1)<h#<__VERIFIER_nondet_int.return>>>}| () Int)
(declare-fun |!{$(in_main#0)<$(in___VERIFIER_nondet_int#2)<h#<__VERIFIER_nondet_int.return>>>}| () Int)
(declare-fun !pc () Int)
(declare-fun !pc.next () Int)
(declare-fun |%{$(in_main#0)<array.1>}#1| () (Array Int Int))
(define-fun .def_34 () Int (! !pc :next !pc.next))
(define-fun .def_37 () Bool (! (= .def_34 2) :init true))
(define-fun .def_120 () Bool (= .def_34 35))
(define-fun .def_107 () Bool (= !pc.next 56))
(define-fun .def_123 () Bool (and .def_107 .def_120))
(define-fun .def_10 () Int (! |!{$(in_main#0)<num>}| :next |!{$(in_main#0)<num>}.next|))
(define-fun .def_71 () Bool (= .def_10 |!{$(in_main#0)<num>}.next|))
(define-fun .def_47 () Bool (= |!{$(in_main#0)<i>}.next| 0))
(define-fun .def_99 () Bool (and .def_47 .def_71))
(define-fun .def_12 () (Array Int Int) (! |!{$(in_main#0)<array.1>}| :next |!{$(in_main#0)<array.1>}.next|))
(define-fun .def_73 () Bool (= .def_12 |!{$(in_main#0)<array.1>}.next|))
(define-fun .def_100 () Bool (and .def_73 .def_99))
(define-fun .def_8 () Int (! |!{$(in_main#0)<i>}| :next |!{$(in_main#0)<i>}.next|))
(define-fun .def_56 () Bool (<= .def_10 .def_8))
(define-fun .def_101 () Bool (and .def_56 .def_100))
(define-fun .def_124 () Bool (and .def_101 .def_123))
(define-fun .def_53 () Bool (= !pc.next 35))
(define-fun .def_121 () Bool (and .def_53 .def_120))
(define-fun .def_116 () (Array Int Int) (store .def_12 .def_8 |!{$(in_main#0)<$(in___VERIFIER_nondet_int#2)<h#<__VERIFIER_nondet_int.return>>>}|))
(define-fun .def_117 () Bool (= |!{$(in_main#0)<array.1>}.next| .def_116))
(define-fun .def_75 () Int (* (- 1) |!{$(in_main#0)<i>}.next|))
(define-fun .def_76 () Int (+ .def_8 .def_75))
(define-fun .def_77 () Bool (= .def_76 (- 1)))
(define-fun .def_78 () Bool (and .def_71 .def_77))
(define-fun .def_118 () Bool (and .def_78 .def_117))
(define-fun .def_57 () Bool (not .def_56))
(define-fun .def_119 () Bool (and .def_57 .def_118))
(define-fun .def_122 () Bool (and .def_119 .def_121))
(define-fun .def_125 () Bool (or .def_122 .def_124))
(define-fun .def_103 () Bool (= .def_34 56))
(define-fun .def_89 () Bool (= !pc.next 97))
(define-fun .def_110 () Bool (and .def_89 .def_103))
(define-fun .def_111 () Bool (and .def_101 .def_110))
(define-fun .def_108 () Bool (and .def_103 .def_107))
(define-fun .def_79 () Bool (and .def_73 .def_78))
(define-fun .def_80 () Bool (and .def_57 .def_79))
(define-fun .def_109 () Bool (and .def_80 .def_108))
(define-fun .def_112 () Bool (or .def_109 .def_111))
(define-fun .def_92 () Bool (= !pc.next 0))
(define-fun .def_85 () Bool (= .def_34 97))
(define-fun .def_93 () Bool (and .def_85 .def_92))
(define-fun .def_70 () Bool (= .def_8 |!{$(in_main#0)<i>}.next|))
(define-fun .def_81 () Bool (and .def_56 .def_70))
(define-fun .def_82 () Bool (and .def_71 .def_81))
(define-fun .def_83 () Bool (and .def_73 .def_82))
(define-fun .def_94 () Bool (and .def_83 .def_93))
(define-fun .def_90 () Bool (and .def_85 .def_89))
(define-fun .def_91 () Bool (and .def_80 .def_90))
(define-fun .def_95 () Bool (or .def_91 .def_94))
(define-fun .def_54 () Bool (and .def_37 .def_53))
(define-fun .def_50 () Bool (= |!{$(in_main#0)<array.1>}.next| |%{$(in_main#0)<array.1>}#1|))
(define-fun .def_48 () Bool (= |!{$(in_main#0)<num>}.next| |!{$(in_main#0)<$(in___VERIFIER_nondet_int#1)<h#<__VERIFIER_nondet_int.return>>>}|))
(define-fun .def_49 () Bool (and .def_47 .def_48))
(define-fun .def_51 () Bool (and .def_49 .def_50))
(define-fun .def_55 () Bool (and .def_51 .def_54))
(define-fun .def_96 () Bool (or .def_55 .def_95))
(define-fun .def_113 () Bool (or .def_96 .def_112))
(define-fun .def_126 () Bool (! (or .def_113 .def_125) :trans true))
(define-fun .def_114 () Bool (= .def_34 84))
(define-fun .def_97 () Bool (= .def_34 125))
(define-fun .def_127 () Bool (or .def_97 .def_114))
(define-fun .def_128 () Bool (! (not .def_127) :invar-property 0 :invar-property-name ||))
(assert true)
